; Declaring all variables of the 8x8 grid
(declare-const x0y0 Bool)
(declare-const x0y1 Bool)
(declare-const x0y2 Bool)
(declare-const x0y3 Bool)
(declare-const x0y4 Bool)
(declare-const x0y5 Bool)
(declare-const x0y6 Bool)
(declare-const x0y7 Bool)
(declare-const x1y0 Bool)
(declare-const x1y1 Bool)
(declare-const x1y2 Bool)
(declare-const x1y3 Bool)
(declare-const x1y4 Bool)
(declare-const x1y5 Bool)
(declare-const x1y6 Bool)
(declare-const x1y7 Bool)
(declare-const x2y0 Bool)
(declare-const x2y1 Bool)
(declare-const x2y2 Bool)
(declare-const x2y3 Bool)
(declare-const x2y4 Bool)
(declare-const x2y5 Bool)
(declare-const x2y6 Bool)
(declare-const x2y7 Bool)
(declare-const x3y0 Bool)
(declare-const x3y1 Bool)
(declare-const x3y2 Bool)
(declare-const x3y3 Bool)
(declare-const x3y4 Bool)
(declare-const x3y5 Bool)
(declare-const x3y6 Bool)
(declare-const x3y7 Bool)
(declare-const x4y0 Bool)
(declare-const x4y1 Bool)
(declare-const x4y2 Bool)
(declare-const x4y3 Bool)
(declare-const x4y4 Bool)
(declare-const x4y5 Bool)
(declare-const x4y6 Bool)
(declare-const x4y7 Bool)
(declare-const x5y0 Bool)
(declare-const x5y1 Bool)
(declare-const x5y2 Bool)
(declare-const x5y3 Bool)
(declare-const x5y4 Bool)
(declare-const x5y5 Bool)
(declare-const x5y6 Bool)
(declare-const x5y7 Bool)
(declare-const x6y0 Bool)
(declare-const x6y1 Bool)
(declare-const x6y2 Bool)
(declare-const x6y3 Bool)
(declare-const x6y4 Bool)
(declare-const x6y5 Bool)
(declare-const x6y6 Bool)
(declare-const x6y7 Bool)
(declare-const x7y0 Bool)
(declare-const x7y1 Bool)
(declare-const x7y2 Bool)
(declare-const x7y3 Bool)
(declare-const x7y4 Bool)
(declare-const x7y5 Bool)
(declare-const x7y6 Bool)
(declare-const x7y7 Bool)

; Checking that at least one queen is located by line
(assert (or x0y0 x0y1 x0y2 x0y3 x0y4 x0y5 x0y6 x0y7))
(assert (or x1y0 x1y1 x1y2 x1y3 x1y4 x1y5 x1y6 x1y7))
(assert (or x2y0 x2y1 x2y2 x2y3 x2y4 x2y5 x2y6 x2y7))
(assert (or x3y0 x3y1 x3y2 x3y3 x3y4 x3y5 x3y6 x3y7))
(assert (or x4y0 x4y1 x4y2 x4y3 x4y4 x4y5 x4y6 x4y7))
(assert (or x5y0 x5y1 x5y2 x5y3 x5y4 x5y5 x5y6 x5y7))
(assert (or x6y0 x6y1 x6y2 x6y3 x6y4 x6y5 x6y6 x6y7))
(assert (or x7y0 x7y1 x7y2 x7y3 x7y4 x7y5 x7y6 x7y7))

; Checking that only one queen is located by line
(assert (not (or (and x0y0 x0y1) (and x0y0 x0y2) (and x0y0 x0y3) (and x0y0 x0y4) (and x0y0 x0y5) (and x0y0 x0y6) (and x0y0 x0y7) (and x0y1 x0y2) (and x0y1 x0y3) (and x0y1 x0y4) (and x0y1 x0y5) (and x0y1 x0y6) (and x0y1 x0y7) (and x0y2 x0y3) (and x0y2 x0y4) (and x0y2 x0y5) (and x0y2 x0y6) (and x0y2 x0y7) (and x0y3 x0y4) (and x0y3 x0y5) (and x0y3 x0y6) (and x0y3 x0y7) (and x0y4 x0y5) (and x0y4 x0y6) (and x0y4 x0y7) (and x0y5 x0y6) (and x0y5 x0y7) (and x0y6 x0y7))))
(assert (not (or (and x1y0 x1y1) (and x1y0 x1y2) (and x1y0 x1y3) (and x1y0 x1y4) (and x1y0 x1y5) (and x1y0 x1y6) (and x1y0 x1y7) (and x1y1 x1y2) (and x1y1 x1y3) (and x1y1 x1y4) (and x1y1 x1y5) (and x1y1 x1y6) (and x1y1 x1y7) (and x1y2 x1y3) (and x1y2 x1y4) (and x1y2 x1y5) (and x1y2 x1y6) (and x1y2 x1y7) (and x1y3 x1y4) (and x1y3 x1y5) (and x1y3 x1y6) (and x1y3 x1y7) (and x1y4 x1y5) (and x1y4 x1y6) (and x1y4 x1y7) (and x1y5 x1y6) (and x1y5 x1y7) (and x1y6 x1y7))))
(assert (not (or (and x2y0 x2y1) (and x2y0 x2y2) (and x2y0 x2y3) (and x2y0 x2y4) (and x2y0 x2y5) (and x2y0 x2y6) (and x2y0 x2y7) (and x2y1 x2y2) (and x2y1 x2y3) (and x2y1 x2y4) (and x2y1 x2y5) (and x2y1 x2y6) (and x2y1 x2y7) (and x2y2 x2y3) (and x2y2 x2y4) (and x2y2 x2y5) (and x2y2 x2y6) (and x2y2 x2y7) (and x2y3 x2y4) (and x2y3 x2y5) (and x2y3 x2y6) (and x2y3 x2y7) (and x2y4 x2y5) (and x2y4 x2y6) (and x2y4 x2y7) (and x2y5 x2y6) (and x2y5 x2y7) (and x2y6 x2y7))))
(assert (not (or (and x3y0 x3y1) (and x3y0 x3y2) (and x3y0 x3y3) (and x3y0 x3y4) (and x3y0 x3y5) (and x3y0 x3y6) (and x3y0 x3y7) (and x3y1 x3y2) (and x3y1 x3y3) (and x3y1 x3y4) (and x3y1 x3y5) (and x3y1 x3y6) (and x3y1 x3y7) (and x3y2 x3y3) (and x3y2 x3y4) (and x3y2 x3y5) (and x3y2 x3y6) (and x3y2 x3y7) (and x3y3 x3y4) (and x3y3 x3y5) (and x3y3 x3y6) (and x3y3 x3y7) (and x3y4 x3y5) (and x3y4 x3y6) (and x3y4 x3y7) (and x3y5 x3y6) (and x3y5 x3y7) (and x3y6 x3y7))))
(assert (not (or (and x4y0 x4y1) (and x4y0 x4y2) (and x4y0 x4y3) (and x4y0 x4y4) (and x4y0 x4y5) (and x4y0 x4y6) (and x4y0 x4y7) (and x4y1 x4y2) (and x4y1 x4y3) (and x4y1 x4y4) (and x4y1 x4y5) (and x4y1 x4y6) (and x4y1 x4y7) (and x4y2 x4y3) (and x4y2 x4y4) (and x4y2 x4y5) (and x4y2 x4y6) (and x4y2 x4y7) (and x4y3 x4y4) (and x4y3 x4y5) (and x4y3 x4y6) (and x4y3 x4y7) (and x4y4 x4y5) (and x4y4 x4y6) (and x4y4 x4y7) (and x4y5 x4y6) (and x4y5 x4y7) (and x4y6 x4y7))))
(assert (not (or (and x5y0 x5y1) (and x5y0 x5y2) (and x5y0 x5y3) (and x5y0 x5y4) (and x5y0 x5y5) (and x5y0 x5y6) (and x5y0 x5y7) (and x5y1 x5y2) (and x5y1 x5y3) (and x5y1 x5y4) (and x5y1 x5y5) (and x5y1 x5y6) (and x5y1 x5y7) (and x5y2 x5y3) (and x5y2 x5y4) (and x5y2 x5y5) (and x5y2 x5y6) (and x5y2 x5y7) (and x5y3 x5y4) (and x5y3 x5y5) (and x5y3 x5y6) (and x5y3 x5y7) (and x5y4 x5y5) (and x5y4 x5y6) (and x5y4 x5y7) (and x5y5 x5y6) (and x5y5 x5y7) (and x5y6 x5y7))))
(assert (not (or (and x6y0 x6y1) (and x6y0 x6y2) (and x6y0 x6y3) (and x6y0 x6y4) (and x6y0 x6y5) (and x6y0 x6y6) (and x6y0 x6y7) (and x6y1 x6y2) (and x6y1 x6y3) (and x6y1 x6y4) (and x6y1 x6y5) (and x6y1 x6y6) (and x6y1 x6y7) (and x6y2 x6y3) (and x6y2 x6y4) (and x6y2 x6y5) (and x6y2 x6y6) (and x6y2 x6y7) (and x6y3 x6y4) (and x6y3 x6y5) (and x6y3 x6y6) (and x6y3 x6y7) (and x6y4 x6y5) (and x6y4 x6y6) (and x6y4 x6y7) (and x6y5 x6y6) (and x6y5 x6y7) (and x6y6 x6y7))))
(assert (not (or (and x7y0 x7y1) (and x7y0 x7y2) (and x7y0 x7y3) (and x7y0 x7y4) (and x7y0 x7y5) (and x7y0 x7y6) (and x7y0 x7y7) (and x7y1 x7y2) (and x7y1 x7y3) (and x7y1 x7y4) (and x7y1 x7y5) (and x7y1 x7y6) (and x7y1 x7y7) (and x7y2 x7y3) (and x7y2 x7y4) (and x7y2 x7y5) (and x7y2 x7y6) (and x7y2 x7y7) (and x7y3 x7y4) (and x7y3 x7y5) (and x7y3 x7y6) (and x7y3 x7y7) (and x7y4 x7y5) (and x7y4 x7y6) (and x7y4 x7y7) (and x7y5 x7y6) (and x7y5 x7y7) (and x7y6 x7y7))))

; Checking that only one queen is located by column
(assert (not (or (and x0y0 x1y0) (and x0y0 x2y0) (and x0y0 x3y0) (and x0y0 x4y0) (and x0y0 x5y0) (and x0y0 x6y0) (and x0y0 x7y0) (and x1y0 x2y0) (and x1y0 x3y0) (and x1y0 x4y0) (and x1y0 x5y0) (and x1y0 x6y0) (and x1y0 x7y0) (and x2y0 x3y0) (and x2y0 x4y0) (and x2y0 x5y0) (and x2y0 x6y0) (and x2y0 x7y0) (and x3y0 x4y0) (and x3y0 x5y0) (and x3y0 x6y0) (and x3y0 x7y0) (and x4y0 x5y0) (and x4y0 x6y0) (and x4y0 x7y0) (and x5y0 x6y0) (and x5y0 x7y0) (and x6y0 x7y0))))
(assert (not (or (and x0y1 x1y1) (and x0y1 x2y1) (and x0y1 x3y1) (and x0y1 x4y1) (and x0y1 x5y1) (and x0y1 x6y1) (and x0y1 x7y1) (and x1y1 x2y1) (and x1y1 x3y1) (and x1y1 x4y1) (and x1y1 x5y1) (and x1y1 x6y1) (and x1y1 x7y1) (and x2y1 x3y1) (and x2y1 x4y1) (and x2y1 x5y1) (and x2y1 x6y1) (and x2y1 x7y1) (and x3y1 x4y1) (and x3y1 x5y1) (and x3y1 x6y1) (and x3y1 x7y1) (and x4y1 x5y1) (and x4y1 x6y1) (and x4y1 x7y1) (and x5y1 x6y1) (and x5y1 x7y1) (and x6y1 x7y1))))
(assert (not (or (and x0y2 x1y2) (and x0y2 x2y2) (and x0y2 x3y2) (and x0y2 x4y2) (and x0y2 x5y2) (and x0y2 x6y2) (and x0y2 x7y2) (and x1y2 x2y2) (and x1y2 x3y2) (and x1y2 x4y2) (and x1y2 x5y2) (and x1y2 x6y2) (and x1y2 x7y2) (and x2y2 x3y2) (and x2y2 x4y2) (and x2y2 x5y2) (and x2y2 x6y2) (and x2y2 x7y2) (and x3y2 x4y2) (and x3y2 x5y2) (and x3y2 x6y2) (and x3y2 x7y2) (and x4y2 x5y2) (and x4y2 x6y2) (and x4y2 x7y2) (and x5y2 x6y2) (and x5y2 x7y2) (and x6y2 x7y2))))
(assert (not (or (and x0y3 x1y3) (and x0y3 x2y3) (and x0y3 x3y3) (and x0y3 x4y3) (and x0y3 x5y3) (and x0y3 x6y3) (and x0y3 x7y3) (and x1y3 x2y3) (and x1y3 x3y3) (and x1y3 x4y3) (and x1y3 x5y3) (and x1y3 x6y3) (and x1y3 x7y3) (and x2y3 x3y3) (and x2y3 x4y3) (and x2y3 x5y3) (and x2y3 x6y3) (and x2y3 x7y3) (and x3y3 x4y3) (and x3y3 x5y3) (and x3y3 x6y3) (and x3y3 x7y3) (and x4y3 x5y3) (and x4y3 x6y3) (and x4y3 x7y3) (and x5y3 x6y3) (and x5y3 x7y3) (and x6y3 x7y3))))
(assert (not (or (and x0y4 x1y4) (and x0y4 x2y4) (and x0y4 x3y4) (and x0y4 x4y4) (and x0y4 x5y4) (and x0y4 x6y4) (and x0y4 x7y4) (and x1y4 x2y4) (and x1y4 x3y4) (and x1y4 x4y4) (and x1y4 x5y4) (and x1y4 x6y4) (and x1y4 x7y4) (and x2y4 x3y4) (and x2y4 x4y4) (and x2y4 x5y4) (and x2y4 x6y4) (and x2y4 x7y4) (and x3y4 x4y4) (and x3y4 x5y4) (and x3y4 x6y4) (and x3y4 x7y4) (and x4y4 x5y4) (and x4y4 x6y4) (and x4y4 x7y4) (and x5y4 x6y4) (and x5y4 x7y4) (and x6y4 x7y4))))
(assert (not (or (and x0y5 x1y5) (and x0y5 x2y5) (and x0y5 x3y5) (and x0y5 x4y5) (and x0y5 x5y5) (and x0y5 x6y5) (and x0y5 x7y5) (and x1y5 x2y5) (and x1y5 x3y5) (and x1y5 x4y5) (and x1y5 x5y5) (and x1y5 x6y5) (and x1y5 x7y5) (and x2y5 x3y5) (and x2y5 x4y5) (and x2y5 x5y5) (and x2y5 x6y5) (and x2y5 x7y5) (and x3y5 x4y5) (and x3y5 x5y5) (and x3y5 x6y5) (and x3y5 x7y5) (and x4y5 x5y5) (and x4y5 x6y5) (and x4y5 x7y5) (and x5y5 x6y5) (and x5y5 x7y5) (and x6y5 x7y5))))
(assert (not (or (and x0y6 x1y6) (and x0y6 x2y6) (and x0y6 x3y6) (and x0y6 x4y6) (and x0y6 x5y6) (and x0y6 x6y6) (and x0y6 x7y6) (and x1y6 x2y6) (and x1y6 x3y6) (and x1y6 x4y6) (and x1y6 x5y6) (and x1y6 x6y6) (and x1y6 x7y6) (and x2y6 x3y6) (and x2y6 x4y6) (and x2y6 x5y6) (and x2y6 x6y6) (and x2y6 x7y6) (and x3y6 x4y6) (and x3y6 x5y6) (and x3y6 x6y6) (and x3y6 x7y6) (and x4y6 x5y6) (and x4y6 x6y6) (and x4y6 x7y6) (and x5y6 x6y6) (and x5y6 x7y6) (and x6y6 x7y6))))
(assert (not (or (and x0y7 x1y7) (and x0y7 x2y7) (and x0y7 x3y7) (and x0y7 x4y7) (and x0y7 x5y7) (and x0y7 x6y7) (and x0y7 x7y7) (and x1y7 x2y7) (and x1y7 x3y7) (and x1y7 x4y7) (and x1y7 x5y7) (and x1y7 x6y7) (and x1y7 x7y7) (and x2y7 x3y7) (and x2y7 x4y7) (and x2y7 x5y7) (and x2y7 x6y7) (and x2y7 x7y7) (and x3y7 x4y7) (and x3y7 x5y7) (and x3y7 x6y7) (and x3y7 x7y7) (and x4y7 x5y7) (and x4y7 x6y7) (and x4y7 x7y7) (and x5y7 x6y7) (and x5y7 x7y7) (and x6y7 x7y7))))

;Checking that only one queen is located by diagonal
(assert (not (or (and x0y0 x1y1) (and x0y0 x2y2) (and x0y0 x3y3) (and x0y0 x4y4) (and x0y0 x5y5) (and x0y0 x6y6) (and x0y0 x7y7) (and x1y1 x2y2) (and x1y1 x3y3) (and x1y1 x4y4) (and x1y1 x5y5) (and x1y1 x6y6) (and x1y1 x7y7) (and x2y2 x3y3) (and x2y2 x4y4) (and x2y2 x5y5) (and x2y2 x6y6) (and x2y2 x7y7) (and x3y3 x4y4) (and x3y3 x5y5) (and x3y3 x6y6) (and x3y3 x7y7) (and x4y4 x5y5) (and x4y4 x6y6) (and x4y4 x7y7) (and x5y5 x6y6) (and x5y5 x7y7) (and x6y6 x7y7))))
(assert (not (or (and x0y1 x1y2) (and x0y1 x2y3) (and x0y1 x3y4) (and x0y1 x4y5) (and x0y1 x5y6) (and x0y1 x6y7) (and x1y2 x2y3) (and x1y2 x3y4) (and x1y2 x4y5) (and x1y2 x5y6) (and x1y2 x6y7) (and x2y3 x3y4) (and x2y3 x4y5) (and x2y3 x5y6) (and x2y3 x6y7) (and x3y4 x4y5) (and x3y4 x5y6) (and x3y4 x6y7) (and x4y5 x5y6) (and x4y5 x6y7) (and x5y6 x6y7))))
(assert (not (or (and x1y0 x2y1) (and x1y0 x3y2) (and x1y0 x4y3) (and x1y0 x5y4) (and x1y0 x6y5) (and x1y0 x7y6) (and x2y1 x3y2) (and x2y1 x4y3) (and x2y1 x5y4) (and x2y1 x6y5) (and x2y1 x7y6) (and x3y2 x4y3) (and x3y2 x5y4) (and x3y2 x6y5) (and x3y2 x7y6) (and x4y3 x5y4) (and x4y3 x6y5) (and x4y3 x7y6) (and x5y4 x6y5) (and x5y4 x7y6) (and x6y5 x7y6))))
(assert (not (or (and x0y2 x1y3) (and x0y2 x2y4) (and x0y2 x3y5) (and x0y2 x4y6) (and x0y2 x5y7) (and x1y3 x2y4) (and x1y3 x3y5) (and x1y3 x4y6) (and x1y3 x5y7) (and x2y4 x3y5) (and x2y4 x4y6) (and x2y4 x5y7) (and x3y5 x4y6) (and x3y5 x5y7) (and x4y6 x5y7))))
(assert (not (or (and x2y0 x3y1) (and x2y0 x4y2) (and x2y0 x5y3) (and x2y0 x6y4) (and x2y0 x7y5) (and x3y1 x4y2) (and x3y1 x5y3) (and x3y1 x6y4) (and x3y1 x7y5) (and x4y2 x5y3) (and x4y2 x6y4) (and x4y2 x7y5) (and x5y3 x6y4) (and x5y3 x7y5) (and x6y4 x7y5))))
(assert (not (or (and x0y3 x1y4) (and x0y3 x2y5) (and x0y3 x3y6) (and x0y3 x4y7) (and x1y4 x2y5) (and x1y4 x3y6) (and x1y4 x4y7) (and x2y5 x3y6) (and x2y5 x4y7) (and x3y6 x4y7))))
(assert (not (or (and x3y0 x4y1) (and x3y0 x5y2) (and x3y0 x6y3) (and x3y0 x7y4) (and x4y1 x5y2) (and x4y1 x6y3) (and x4y1 x7y4) (and x5y2 x6y3) (and x5y2 x7y4) (and x6y3 x7y4))))
(assert (not (or (and x0y4 x1y5) (and x0y4 x2y6) (and x0y4 x3y7) (and x1y5 x2y6) (and x1y5 x3y7) (and x2y6 x3y7))))
(assert (not (or (and x4y0 x5y1) (and x4y0 x6y2) (and x4y0 x7y3) (and x5y1 x6y2) (and x5y1 x7y3) (and x6y2 x7y3))))
(assert (not (or (and x0y5 x1y6) (and x0y5 x2y7) (and x1y6 x2y7))))
(assert (not (or (and x5y0 x6y1) (and x5y0 x7y2) (and x6y1 x7y2))))
(assert (not (or (and x0y6 x1y7))))
(assert (not (or (and x6y0 x7y1))))
(assert (not (or (and x0y7 x1y6) (and x0y7 x2y5) (and x0y7 x3y4) (and x0y7 x4y3) (and x0y7 x5y2) (and x0y7 x6y1) (and x0y7 x7y0) (and x1y6 x2y5) (and x1y6 x3y4) (and x1y6 x4y3) (and x1y6 x5y2) (and x1y6 x6y1) (and x1y6 x7y0) (and x2y5 x3y4) (and x2y5 x4y3) (and x2y5 x5y2) (and x2y5 x6y1) (and x2y5 x7y0) (and x3y4 x4y3) (and x3y4 x5y2) (and x3y4 x6y1) (and x3y4 x7y0) (and x4y3 x5y2) (and x4y3 x6y1) (and x4y3 x7y0) (and x5y2 x6y1) (and x5y2 x7y0) (and x6y1 x7y0))))
(assert (not (or (and x7y1 x6y2) (and x7y1 x5y3) (and x7y1 x4y4) (and x7y1 x3y5) (and x7y1 x2y6) (and x7y1 x1y7) (and x6y2 x5y3) (and x6y2 x4y4) (and x6y2 x3y5) (and x6y2 x2y6) (and x6y2 x1y7) (and x5y3 x4y4) (and x5y3 x3y5) (and x5y3 x2y6) (and x5y3 x1y7) (and x4y4 x3y5) (and x4y4 x2y6) (and x4y4 x1y7) (and x3y5 x2y6) (and x3y5 x1y7) (and x2y6 x1y7))))
(assert (not (or (and x6y0 x5y1) (and x6y0 x4y2) (and x6y0 x3y3) (and x6y0 x2y4) (and x6y0 x1y5) (and x6y0 x0y6) (and x5y1 x4y2) (and x5y1 x3y3) (and x5y1 x2y4) (and x5y1 x1y5) (and x5y1 x0y6) (and x4y2 x3y3) (and x4y2 x2y4) (and x4y2 x1y5) (and x4y2 x0y6) (and x3y3 x2y4) (and x3y3 x1y5) (and x3y3 x0y6) (and x2y4 x1y5) (and x2y4 x0y6) (and x1y5 x0y6))))
(assert (not (or (and x7y2 x6y3) (and x7y2 x5y4) (and x7y2 x4y5) (and x7y2 x3y6) (and x7y2 x2y7) (and x6y3 x5y4) (and x6y3 x4y5) (and x6y3 x3y6) (and x6y3 x2y7) (and x5y4 x4y5) (and x5y4 x3y6) (and x5y4 x2y7) (and x4y5 x3y6) (and x4y5 x2y7) (and x3y6 x2y7))))
(assert (not (or (and x5y0 x4y1) (and x5y0 x3y2) (and x5y0 x2y3) (and x5y0 x1y4) (and x5y0 x0y5) (and x4y1 x3y2) (and x4y1 x2y3) (and x4y1 x1y4) (and x4y1 x0y5) (and x3y2 x2y3) (and x3y2 x1y4) (and x3y2 x0y5) (and x2y3 x1y4) (and x2y3 x0y5) (and x1y4 x0y5))))
(assert (not (or (and x7y3 x6y4) (and x7y3 x5y5) (and x7y3 x4y6) (and x7y3 x3y7) (and x6y4 x5y5) (and x6y4 x4y6) (and x6y4 x3y7) (and x5y5 x4y6) (and x5y5 x3y7) (and x4y6 x3y7))))
(assert (not (or (and x4y0 x3y1) (and x4y0 x2y2) (and x4y0 x1y3) (and x4y0 x0y4) (and x3y1 x2y2) (and x3y1 x1y3) (and x3y1 x0y4) (and x2y2 x1y3) (and x2y2 x0y4) (and x1y3 x0y4))))
(assert (not (or (and x7y4 x6y5) (and x7y4 x5y6) (and x7y4 x4y7) (and x6y5 x5y6) (and x6y5 x4y7) (and x5y6 x4y7))))
(assert (not (or (and x3y0 x2y1) (and x3y0 x1y2) (and x3y0 x0y3) (and x2y1 x1y2) (and x2y1 x0y3) (and x1y2 x0y3))))
(assert (not (or (and x7y5 x6y6) (and x7y5 x5y7) (and x6y6 x5y7))))
(assert (not (or (and x2y0 x1y1) (and x2y0 x0y2) (and x1y1 x0y2))))
(assert (not (or (and x7y6 x6y7))))
(assert (not (or (and x1y0 x0y1))))

; Checking that assignment is satisfiable
(check-sat)

; Get the model for each cell, the cell with the value 'true' host a queen
(get-model)